sat
(
  (define-fun MemProv5 () Int
    3150)
  (define-fun VM4Type () Int
    1)
  (define-fun ProcProv4 () Int
    900)
  (define-fun C1_VM3 () Int
    0)
  (define-fun C1_VM6 () Int
    0)
  (define-fun C3_VM6 () Int
    0)
  (define-fun StorageProv5 () Int
    69000)
  (define-fun ProcProv3 () Int
    3600)
  (define-fun C5_VM1 () Int
    1)
  (define-fun C5_VM2 () Int
    0)
  (define-fun C3_VM1 () Int
    0)
  (define-fun C2_VM3 () Int
    0)
  (define-fun VM5Type () Int
    7)
  (define-fun PriceProv4 () Int
    120)
  (define-fun ProcProv2 () Int
    1800)
  (define-fun C1_VM5 () Int
    0)
  (define-fun C3_VM3 () Int
    0)
  (define-fun ProcProv5 () Int
    1800)
  (define-fun MemProv4 () Int
    1350)
  (define-fun C5_VM6 () Int
    1)
  (define-fun C3_VM4 () Int
    0)
  (define-fun C1_VM2 () Int
    1)
  (define-fun VM1Type () Int
    1)
  (define-fun MemProv1 () Int
    1350)
  (define-fun C5_VM4 () Int
    1)
  (define-fun C4_VM1 () Int
    0)
  (define-fun VM2Type () Int
    7)
  (define-fun StorageProv1 () Int
    42000)
  (define-fun StorageProv3 () Int
    87000)
  (define-fun C3_VM2 () Int
    0)
  (define-fun PriceProv2 () Int
    240)
  (define-fun C3_VM5 () Int
    1)
  (define-fun MemProv3 () Int
    28350)
  (define-fun C2_VM6 () Int
    1)
  (define-fun StorageProv6 () Int
    42000)
  (define-fun ProcProv6 () Int
    900)
  (define-fun C2_VM1 () Int
    1)
  (define-fun C2_VM4 () Int
    1)
  (define-fun C4_VM3 () Int
    1)
  (define-fun C5_VM5 () Int
    1)
  (define-fun PriceProv3 () Int
    1680)
  (define-fun StorageProv2 () Int
    69000)
  (define-fun C5_VM3 () Int
    0)
  (define-fun C4_VM4 () Int
    0)
  (define-fun C4_VM6 () Int
    0)
  (define-fun VM3Type () Int
    24)
  (define-fun PriceProv6 () Int
    120)
  (define-fun C2_VM2 () Int
    0)
  (define-fun PriceProv5 () Int
    240)
  (define-fun ProcProv1 () Int
    900)
  (define-fun C2_VM5 () Int
    0)
  (define-fun C4_VM5 () Int
    0)
  (define-fun StorageProv4 () Int
    42000)
  (define-fun MemProv6 () Int
    1350)
  (define-fun MemProv2 () Int
    3150)
  (define-fun C1_VM4 () Int
    0)
  (define-fun C4_VM2 () Int
    0)
  (define-fun PriceProv1 () Int
    120)
  (define-fun VM6Type () Int
    1)
  (define-fun C1_VM1 () Int
    0)
)
(objectives
 ( 17)
 ((+ 0 PriceProv1 PriceProv2 PriceProv3 PriceProv4 PriceProv5 PriceProv6) 2520)
)
(:added-eqs                   104911
 :arith-eq-adapter            13612
 :arith-bound-propagations-lp 8586
 :arith-conflicts             39
 :arith-diseq                 102316
 :arith-fixed-eqs             1447
 :arith-lower                 147471
 :arith-make-feasible         14811
 :arith-max-columns           120
 :arith-max-rows              20
 :arith-upper                 88617
 :binary-propagations         508694
 :conflicts                   2581
 :decisions                   43253
 :del-clause                  18836
 :final-checks                108
 :max-memory                  42.72
 :maxsat-cores                3
 :memory                      42.54
 :minimized-lits              15645
 :mk-bool-var                 27357
 :mk-clause                   20073
 :mk-clause-binary            2991
 :num-allocs                  38280122
 :num-checks                  94
 :pb-conflicts                1157
 :pb-predicates               318
 :pb-propagations             3365
 :pb-resolves                 1150
 :propagations                752593
 :restarts                    14
 :rlimit-count                4622908
 :solve-eqs-elim-vars         1
 :solve-eqs-steps             10
 :time                        0.25
 :total-time                  0.26)
